certificates/rado_a7_c82_N14.cnf
c Rad2 upper bound instance: x1 + 7*x2 - x3 = 82, interval [1,14]
p cnf 14 54
1 3 12 0
-1 -3 -12 0
1 10 13 0
-1 -10 -13 0
2 4 12 0
-2 -4 -12 0
2 11 13 0
-2 -11 -13 0
3 5 12 0
-3 -5 -12 0
3 12 13 0
-3 -12 -13 0
4 6 12 0
-4 -6 -12 0
4 13 0
-4 -13 0
5 7 12 0
-5 -7 -12 0
5 13 14 0
-5 -13 -14 0
1 6 11 0
-1 -6 -11 0
6 8 12 0
-6 -8 -12 0
2 7 11 0
-2 -7 -11 0
7 9 12 0
-7 -9 -12 0
3 8 11 0
-3 -8 -11 0
8 10 12 0
-8 -10 -12 0
4 9 11 0
-4 -9 -11 0
9 11 12 0
-9 -11 -12 0
5 10 11 0
-5 -10 -11 0
10 12 0
-10 -12 0
6 11 0
-6 -11 0
11 12 13 0
-11 -12 -13 0
7 11 12 0
-7 -11 -12 0
12 14 0
-12 -14 0
8 11 13 0
-8 -11 -13 0
2 10 14 0
-2 -10 -14 0
9 11 14 0
-9 -11 -14 0
