certificates/rado_a7_c82_N14.drat
13 12 0
d 11 13 12 0
2 12 0
d 4 2 12 0
-14 0
12 0
-10 0
2 0
-4 0
13 0
-11 0
-3 0
6 0
9 0
8 0
5 0
0
